(set-info :smt-lib-version 2.6)
(set-logic QF_BV)
(set-info :source |
 Patrice Godefroid, SAGE (systematic dynamic test generation)
 For more information: http://research.microsoft.com/en-us/um/people/pg/public_psfiles/ndss2008.pdf
|)
(set-info :category "industrial")
(set-info :status sat)
(declare-fun T1_10007 () (_ BitVec 8))
(declare-fun T1_9975 () (_ BitVec 8))
(declare-fun T1_9943 () (_ BitVec 8))
(declare-fun T1_9920 () (_ BitVec 8))
(declare-fun T1_9916 () (_ BitVec 8))
(declare-fun T2_9524 () (_ BitVec 16))
(declare-fun T1_9515 () (_ BitVec 8))
(declare-fun T1_10036 () (_ BitVec 8))
(declare-fun T2_9918 () (_ BitVec 16))
(declare-fun T4_9516 () (_ BitVec 32))
(declare-fun T1_9918 () (_ BitVec 8))
(declare-fun T1_9919 () (_ BitVec 8))
(declare-fun T1_9524 () (_ BitVec 8))
(declare-fun T1_9525 () (_ BitVec 8))
(declare-fun T1_9516 () (_ BitVec 8))
(declare-fun T1_9517 () (_ BitVec 8))
(declare-fun T1_9518 () (_ BitVec 8))
(declare-fun T1_9519 () (_ BitVec 8))
(assert (let ((?v_24 ((_ zero_extend 24) T1_10007)) (?v_0 ((_ zero_extend 24) (_ bv1 8))) (?v_18 ((_ zero_extend 24) T1_9975)) (?v_13 ((_ zero_extend 24) T1_9943)) (?v_7 ((_ zero_extend 24) T1_9920)) (?v_9 ((_ zero_extend 24) T1_9916)) (?v_3 ((_ zero_extend 16) T2_9524)) (?v_2 ((_ zero_extend 24) T1_9515))) (let ((?v_4 (bvsub ?v_2 (_ bv8 32)))) (let ((?v_5 (bvadd (bvadd (bvadd (bvadd ?v_4 (_ bv4274791 32)) ?v_3) (_ bv7 32)) ?v_9))) (let ((?v_11 (bvadd (bvadd ?v_5 (_ bv3 32)) ?v_7))) (let ((?v_16 (bvadd (bvadd ?v_11 ?v_0) ?v_13))) (let ((?v_22 (bvadd (bvadd ?v_16 ?v_0) ?v_18))) (let ((?v_1 (bvsub (bvadd (bvadd ?v_22 ?v_0) ?v_24) (_ bv4274759 32)))) (let ((?v_31 (bvadd ?v_1 (_ bv4274760 32))) (?v_23 (bvsub ?v_22 (_ bv4274759 32)))) (let ((?v_30 (bvadd ?v_23 (_ bv4274760 32))) (?v_29 ((_ zero_extend 24) T1_10036)) (?v_15 ((_ zero_extend 16) T2_9918))) (let ((?v_20 (bvadd ?v_15 (bvsub (_ bv4294967295 32) ?v_7)))) (let ((?v_27 (bvadd ?v_20 (bvsub (_ bv4294967295 32) ?v_13)))) (let ((?v_28 (bvadd ?v_27 (bvsub (_ bv4294967295 32) ?v_18))) (?v_25 (bvsub (bvadd ?v_30 ?v_24) (_ bv1 32))) (?v_26 (bvadd ?v_23 (_ bv4274788 32))) (?v_17 (bvsub ?v_16 (_ bv4274759 32)))) (let ((?v_21 (bvadd ?v_17 (_ bv4274760 32)))) (let ((?v_19 (bvsub (bvadd ?v_21 ?v_18) (_ bv1 32))) (?v_12 (bvsub ?v_11 (_ bv4274759 32)))) (let ((?v_14 (bvadd ?v_12 (_ bv4274760 32))) (?v_6 (bvsub ?v_5 (_ bv4274757 32)))) (let ((?v_10 (bvadd ?v_6 (_ bv4274760 32)))) (let ((?v_8 (bvsub (bvadd ?v_10 ?v_7) (_ bv1 32)))) (and true (= T4_9516 (bvor (bvshl (bvor (bvshl (bvor (bvshl ((_ zero_extend 24) T1_9519) (_ bv8 32)) ((_ zero_extend 24) T1_9518)) (_ bv8 32)) ((_ zero_extend 24) T1_9517)) (_ bv8 32)) ((_ zero_extend 24) T1_9516))) (= T2_9524 (bvor (bvshl ((_ zero_extend 8) T1_9525) (_ bv8 16)) ((_ zero_extend 8) T1_9524))) (= T2_9918 (bvor (bvshl ((_ zero_extend 8) T1_9919) (_ bv8 16)) ((_ zero_extend 8) T1_9918))) (bvule (bvsub (bvadd ?v_31 ?v_29) (_ bv1 32)) (bvadd ?v_1 (_ bv4274776 32))) (bvule (bvadd (bvadd (bvadd (bvadd (bvadd ?v_2 (_ bv1 32)) (_ bv4274782 32)) ?v_3) (_ bv6 32)) (_ bv1 32)) (_ bv4275606 32)) (not (= (bvadd (bvadd ?v_4 (_ bv31 32)) (_ bv4274760 32)) (_ bv0 32))) (bvule (_ bv8 32) ?v_2) (not (= ?v_2 (_ bv1 32))) (bvule ?v_4 (_ bv0 32)) (bvult (_ bv0 32) ?v_3) (not (= ?v_3 (_ bv0 32))) (= T4_9516 ?v_3) (not (= (bvadd ?v_6 (_ bv4274782 32)) ?v_8)) (bvult (bvadd ?v_6 (_ bv4274774 32)) ?v_8) (bvult ?v_9 (_ bv8 32)) (not (= ?v_9 (_ bv0 32))) (= ?v_9 (_ bv1 32)) (not (= ?v_10 (_ bv0 32))) (= (bvadd ?v_12 (_ bv4274790 32)) (bvsub (bvadd ?v_14 ?v_13) (_ bv1 32))) (not (= ?v_15 (_ bv0 32))) (not (= ?v_14 (_ bv0 32))) (not (= ?v_20 (_ bv0 32))) (= (bvadd ?v_17 (_ bv4274790 32)) ?v_19) (bvult (bvadd ?v_17 (_ bv4274772 32)) ?v_19) (not (= ?v_27 (_ bv0 32))) (not (= ?v_21 (_ bv0 32))) (not (= ?v_26 ?v_25)) (bvule ?v_25 ?v_26) (bvult (bvadd ?v_23 (_ bv4274770 32)) ?v_25) (not (= ?v_28 (_ bv0 32))) (= (bvadd (bvadd ?v_28 (bvsub (_ bv4294967295 32) ?v_24)) (bvsub (_ bv4294967295 32) ?v_29)) (_ bv0 32)) (not (= ?v_30 (_ bv0 32))) (not (= ?v_31 (_ bv0 32))))))))))))))))))))))
(check-sat)
(exit)
